70 689
1 36 29 13 70 35 69 31 38 59 22 66 63 57 15 24 19 7 2 4 18 42 6 41 43 17 68 44 3 32 8 26 55 49 28 14 20 30 27 46 45 25 39 61 40 9 34 21 12 33 62 54 48 67 11 64 65 56 51 60 52 10 53 5 50 58 37 47 16 23 
